words_train/words_519_SAT.qaiger
aag 83 24 0 1 59
36
44
42
46
40
18
28
26
30
2
8
32
20
4
14
34
38
6
22
10
48
24
12
16
167
50 35 19
52 34 18
54 53 51
56 5 3
58 4 2
60 59 20
62 60 57
64 62 36
66 63 37
68 67 65
70 69 55
72 59 7
74 58 6
76 75 22
78 76 73
80 78 38
82 79 39
84 83 81
86 85 70
88 75 9
90 74 8
92 91 24
94 92 89
96 94 40
98 95 41
100 99 97
102 101 86
104 91 11
106 90 10
108 107 26
110 108 105
112 110 42
114 111 43
116 115 113
118 117 102
120 107 13
122 106 12
124 123 28
126 124 121
128 126 44
130 127 45
132 131 129
134 133 118
136 123 15
138 122 14
140 139 30
142 140 137
144 142 46
146 143 47
148 147 145
150 149 134
152 138 16
154 139 17
156 155 32
158 156 153
160 158 48
162 159 49
164 163 161
166 165 150
i0 1 x[1]
i1 1 x[5]
i2 1 x[4]
i3 1 x[6]
i4 1 x[3]
i5 2 z[0]
i6 2 z[5]
i7 2 z[4]
i8 2 z[6]
i9 2 y[0]
i10 2 y[3]
i11 2 z[7]
i12 2 z[1]
i13 2 y[1]
i14 2 y[6]
i15 1 x[0]
i16 1 x[2]
i17 2 y[2]
i18 2 z[2]
i19 2 y[4]
i20 1 x[7]
i21 2 z[3]
i22 2 y[5]
i23 2 y[7]
o0 bool[0]
c
simplified
  !=
    and
      or
        1
        add
          2 y
          1
      2 z
    1 x
