words_train/words_519_SAT.qaiger.qdimacs
p cnf 83 178
a 17 18 19 20 21 22 23 24 0
e 1 2 3 4 5 6 7 8 9 10 11 12 13 14 15 16 25 26 27 28 29 30 31 32 33 34 35 36 37 38 39 40 41 42 43 44 45 46 47 48 49 50 51 52 53 54 55 56 57 58 59 60 61 62 63 64 65 66 67 68 69 70 71 72 73 74 75 76 77 78 79 80 81 82 83 0
17 9 25 0
-17 -25 0
-9 -25 0
-17 -9 26 0
17 -26 0
9 -26 0
26 25 27 0
-26 -27 0
-25 -27 0
2 1 28 0
-2 -28 0
-1 -28 0
-2 -1 29 0
2 -29 0
1 -29 0
29 -10 30 0
-29 -30 0
10 -30 0
-30 28 31 0
30 -31 0
-28 -31 0
-31 -18 32 0
31 -32 0
18 -32 0
31 18 33 0
-31 -33 0
-18 -33 0
33 32 34 0
-33 -34 0
-32 -34 0
34 27 35 0
-34 -35 0
-27 -35 0
29 3 36 0
-29 -36 0
-3 -36 0
-29 -3 37 0
29 -37 0
3 -37 0
37 -11 38 0
-37 -38 0
11 -38 0
-38 36 39 0
38 -39 0
-36 -39 0
-39 -19 40 0
39 -40 0
19 -40 0
39 19 41 0
-39 -41 0
-19 -41 0
41 40 42 0
-41 -42 0
-40 -42 0
42 -35 43 0
-42 -43 0
35 -43 0
37 4 44 0
-37 -44 0
-4 -44 0
-37 -4 45 0
37 -45 0
4 -45 0
45 -12 46 0
-45 -46 0
12 -46 0
-46 44 47 0
46 -47 0
-44 -47 0
-47 -20 48 0
47 -48 0
20 -48 0
47 20 49 0
-47 -49 0
-20 -49 0
49 48 50 0
-49 -50 0
-48 -50 0
50 -43 51 0
-50 -51 0
43 -51 0
45 5 52 0
-45 -52 0
-5 -52 0
-45 -5 53 0
45 -53 0
5 -53 0
53 -13 54 0
-53 -54 0
13 -54 0
-54 52 55 0
54 -55 0
-52 -55 0
-55 -21 56 0
55 -56 0
21 -56 0
55 21 57 0
-55 -57 0
-21 -57 0
57 56 58 0
-57 -58 0
-56 -58 0
58 -51 59 0
-58 -59 0
51 -59 0
53 6 60 0
-53 -60 0
-6 -60 0
-53 -6 61 0
53 -61 0
6 -61 0
61 -14 62 0
-61 -62 0
14 -62 0
-62 60 63 0
62 -63 0
-60 -63 0
-63 -22 64 0
63 -64 0
22 -64 0
63 22 65 0
-63 -65 0
-22 -65 0
65 64 66 0
-65 -66 0
-64 -66 0
66 -59 67 0
-66 -67 0
59 -67 0
61 7 68 0
-61 -68 0
-7 -68 0
-61 -7 69 0
61 -69 0
7 -69 0
69 -15 70 0
-69 -70 0
15 -70 0
-70 68 71 0
70 -71 0
-68 -71 0
-71 -23 72 0
71 -72 0
23 -72 0
71 23 73 0
-71 -73 0
-23 -73 0
73 72 74 0
-73 -74 0
-72 -74 0
74 -67 75 0
-74 -75 0
67 -75 0
-69 -8 76 0
69 -76 0
8 -76 0
69 8 77 0
-69 -77 0
-8 -77 0
77 -16 78 0
-77 -78 0
16 -78 0
-78 76 79 0
78 -79 0
-76 -79 0
-79 -24 80 0
79 -80 0
24 -80 0
79 24 81 0
-79 -81 0
-24 -81 0
81 80 82 0
-81 -82 0
-80 -82 0
82 -75 83 0
-82 -83 0
75 -83 0
-83 0
